CUSTOMERS : 10
VEHICLES : 2
0 434 417 287 159 8 247 361 381 317 381 
413 0 200 470 255 492 90 257 19 440 478 
394 279 0 62 96 496 391 41 336 75 233 
356 211 106 0 499 139 315 54 176 493 160 
74 482 342 497 0 116 285 319 56 175 33 
134 76 90 290 91 0 285 145 272 416 459 
454 19 475 383 216 59 0 175 159 96 126 
493 442 499 479 64 348 272 0 375 417 16 
410 103 450 146 491 443 105 210 0 360 314 
301 472 336 251 20 240 422 111 378 0 259 
397 16 216 251 179 157 367 97 403 361 0 
